
Gurobi 9.0.2 (win64) logging started Sun Dec 27 06:15:45 2020

Changed value of parameter logfile to result\SunCable-20201227T0415\scenario_2030_p0_cab5000.log
   Prev:   Default: 
Gurobi Optimizer version 9.0.2 build v9.0.2rc0 (win64)
Optimize a model with 1243974 rows, 762167 columns and 3491691 nonzeros
Model fingerprint: 0x7917388c
Coefficient statistics:
  Matrix range     [1e-07, 5e+05]
  Objective range  [1e+00, 1e+00]
  Bounds range     [0e+00, 0e+00]
  RHS range        [2e-05, 3e+08]
Warning: Model contains large matrix coefficient range
         Consider reformulating model or setting NumericFocus parameter
         to avoid numerical issues.

Concurrent LP optimizer: primal simplex, dual simplex, and barrier
Showing barrier log only...

Presolve removed 1068997 rows and 595935 columns
Presolve time: 2.68s
Presolved: 174977 rows, 280098 columns, 652320 nonzeros

Ordering time: 0.08s

Barrier statistics:
 Dense cols : 5
 AA' NZ     : 6.422e+05
 Factor NZ  : 3.150e+06 (roughly 200 MBytes of memory)
 Factor Ops : 7.040e+07 (less than 1 second per iteration)
 Threads    : 30

                  Objective                Residual
Iter       Primal          Dual         Primal    Dual     Compl     Time
   0  -2.63270139e+16 -1.07293830e+15  7.68e+06 2.51e+04  3.16e+12     3s
   1  -5.54967725e+15 -1.08626933e+15  1.61e+06 4.57e+06  8.74e+11     3s
   2  -1.81289449e+15 -1.02574207e+15  5.29e+05 8.03e+05  2.51e+11     4s
   3  -3.45915334e+14 -9.00133179e+14  1.02e+05 1.27e+05  4.92e+10     4s
   4  -7.84313862e+13 -5.61653534e+14  2.23e+04 3.49e+04  1.19e+10     4s
   5  -2.45301718e+13 -3.72014052e+14  7.14e+03 1.68e+04  4.50e+09     4s
   6  -7.21440301e+12 -2.90800437e+14  2.31e+03 1.07e+04  2.13e+09     5s
   7  -2.44359215e+12 -1.09028166e+14  9.25e+02 1.06e+03  5.01e+08     5s
   8   5.66195277e+11 -2.90038122e+13  2.29e+01 5.88e+01  5.97e+07     5s
   9   3.61382171e+11 -1.56467077e+12  3.48e+00 1.56e+00  3.70e+06     5s
  10   1.18435521e+11 -6.08992412e+11  6.70e-01 1.86e-01  1.33e+06     6s
  11   4.56044414e+10 -2.80841183e+11  1.89e-01 5.59e-09  5.86e+05     6s
  12   2.40448194e+10 -3.71781312e+10  7.99e-02 7.45e-09  1.10e+05     6s
  13   1.41732977e+10 -3.93685011e+09  2.77e-02 7.45e-09  3.26e+04     6s
  14   1.01919770e+10  1.78143797e+09  1.04e-02 7.45e-09  1.51e+04     7s
  15   8.89988719e+09  4.42054555e+09  4.26e-03 5.59e-09  7.98e+03     7s
  16   8.44850605e+09  5.61134818e+09  2.08e-03 5.59e-09  5.04e+03     7s
  17   8.22390135e+09  6.31053908e+09  1.06e-03 3.73e-09  3.39e+03     7s
  18   8.14669933e+09  7.17697897e+09  6.60e-04 2.79e-09  1.72e+03     8s
  19   8.10193324e+09  7.36340841e+09  4.21e-04 2.79e-09  1.31e+03     8s
  20   8.07683592e+09  7.47324567e+09  2.95e-04 2.79e-09  1.07e+03     8s
  21   8.05681821e+09  7.73335483e+09  2.09e-04 1.86e-09  5.72e+02     8s
  22   8.03289439e+09  7.79458078e+09  1.00e-04 1.86e-09  4.20e+02     9s
  23   8.02351351e+09  7.87444655e+09  6.13e-05 1.86e-09  2.63e+02     9s
  24   8.01320870e+09  7.91521034e+09  2.21e-05 1.86e-09  1.73e+02     9s
  25   8.01077884e+09  7.94009436e+09  1.36e-05 1.86e-09  1.24e+02     9s
  26   8.00942962e+09  7.96697444e+09  9.09e-06 1.86e-09  7.48e+01    10s
  27   8.00826965e+09  7.98383640e+09  5.32e-06 1.86e-09  4.30e+01    10s
  28   8.00739398e+09  7.99161689e+09  2.76e-06 1.86e-09  2.78e+01    10s
  29   8.00711316e+09  7.99589635e+09  1.93e-06 1.86e-09  1.97e+01    10s
  30   8.00664172e+09  7.99910385e+09  1.18e-06 1.86e-09  1.33e+01    10s
  31   8.00657929e+09  8.00065788e+09  9.07e-07 1.86e-09  1.04e+01    11s
  32   8.00650706e+09  8.00188030e+09  5.60e-07 1.86e-09  8.14e+00    11s
  33   8.00647143e+09  8.00303251e+09  4.42e-07 1.86e-09  6.05e+00    11s
  34   8.00644605e+09  8.00332311e+09  3.44e-07 1.86e-09  5.49e+00    11s
  35   8.00639975e+09  8.00466230e+09  1.77e-07 1.86e-09  3.06e+00    12s
  36   8.00636790e+09  8.00545115e+09  8.09e-08 1.86e-09  1.61e+00    12s
  37   8.00635717e+09  8.00585355e+09  4.72e-08 1.86e-09  8.86e-01    12s
  38   8.00634136e+09  8.00600725e+09  2.20e-07 1.86e-09  5.87e-01    12s
  39   8.00633856e+09  8.00624271e+09  2.21e-07 2.79e-09  1.69e-01    13s
  40   8.00633803e+09  8.00628732e+09  3.36e-07 1.86e-09  8.92e-02    13s
  41   8.00633785e+09  8.00633389e+09  3.81e-07 5.17e-09  6.96e-03    13s
  42   8.00633728e+09  8.00633625e+09  6.67e-08 1.86e-09  1.81e-03    13s
  43   8.00633725e+09  8.00633723e+09  7.50e-06 3.05e-07  3.42e-05    14s
  44   8.00633725e+09  8.00633723e+09  7.55e-05 3.05e-07  3.42e-05    14s

Barrier solved model in 44 iterations and 14.35 seconds
Optimal objective 8.00633725e+09

Crossover log...

   20130 DPushes remaining with DInf 0.0000000e+00                15s
    1388 DPushes remaining with DInf 0.0000000e+00                15s
       0 DPushes remaining with DInf 0.0000000e+00                16s
Warning: Markowitz tolerance tightened to 0.5

   74696 PPushes remaining with PInf 2.3816561e-04                16s
   26255 PPushes remaining with PInf 3.0262228e-04                25s
   15670 PPushes remaining with PInf 2.2236273e-04                25s
       0 PPushes remaining with PInf 0.0000000e+00                53s

  Push phase complete: Pinf 0.0000000e+00, Dinf 1.1300894e+01     53s

Iteration    Objective       Primal Inf.    Dual Inf.      Time
   93865    8.0063373e+09   0.000000e+00   1.130089e+01     54s
   93866    8.0063373e+09   0.000000e+00   0.000000e+00     55s

Solved with barrier
Solved in 93866 iterations and 55.40 seconds
Optimal objective  8.006337251e+09
Warning: unscaled primal violation = 0.000871079 and residual = 0.000871079
